100 1124,1156 473,882825 23,7466
200 6705,0813 4406,297275 1945,3716
300 37333,724 11992,6089 40,3279
400 3755,999 2158,3047500000002 611,2361
500 20332,629 12831,783449999999 5225,8251
600 749,521 356,2848 10,6387
700 8444,2491 3137,8269 1840,6985
800 28504,4131 10976,31205 18,0212
900 3978,034 2402,272925 711,8726
1000 43181,0038 14369,807099999998 5595,6576
